Welcome to the CBC MILP Solver 
Version: 2.10.7 
Build Date: Feb 14 2022 

command line - cbc inputs/new_no_tr/order/jump_3_20_default_input.lp sec 1800 solve solu solutions/new_no_tr/jump_3_20_default_input.lp (default strategy 1)
seconds was changed from 1e+100 to 1800
Continuous objective value is 21504 - 0.03 seconds
Cgl0002I 54 variables fixed
Cgl0003I 0 fixed, 9 tightened bounds, 184 strengthened rows, 0 substitutions
Cgl0003I 0 fixed, 1 tightened bounds, 28 strengthened rows, 0 substitutions
Cgl0003I 0 fixed, 0 tightened bounds, 2 strengthened rows, 0 substitutions
Cgl0004I processed model has 1129 rows, 377 columns (377 integer (356 of which binary)) and 3774 elements
Cutoff increment increased from 1e-05 to 0.9999
Cbc0045I 1 integer variables out of 377 objects (377 integer) have cost of 1 - high priority
Cbc0045I branch on satisfied Y create fake objective Y random cost Y
Cbc0038I Initial state - 192 integers unsatisfied sum - 75.4925
Cbc0038I Pass   1: suminf.   16.18521 (105) obj. 23452.8 iterations 357
Cbc0038I Pass   2: suminf.   16.80402 (106) obj. 24506.4 iterations 90
Cbc0038I Pass   3: suminf.   16.86191 (110) obj. 26117.8 iterations 52
Cbc0038I Pass   4: suminf.   11.34538 (73) obj. 35027.7 iterations 119
Cbc0038I Pass   5: suminf.   11.88547 (76) obj. 34675.5 iterations 13
Cbc0038I Pass   6: suminf.    6.35122 (40) obj. 28106.5 iterations 135
Cbc0038I Pass   7: suminf.    5.03951 (44) obj. 29806.7 iterations 53
Cbc0038I Pass   8: suminf.    0.00000 (0) obj. 27648 iterations 44
Cbc0038I Solution found of 27648
Cbc0038I Cleaned solution of 27648
Cbc0038I Before mini branch and bound, 133 integers at bound fixed and 0 continuous
Cbc0038I Full problem 1129 rows 377 columns, reduced to 848 rows 244 columns - 39 fixed gives 501, 148 - ok now
Cbc0038I Mini branch and bound did not improve solution (0.15 seconds)
Cbc0038I Round again with cutoff of 27032.7
Cbc0038I Reduced cost fixing fixed 3 variables on major pass 2
Cbc0038I Pass   9: suminf.   16.18521 (105) obj. 23452.8 iterations 0
Cbc0038I Pass  10: suminf.   15.84551 (106) obj. 23562.3 iterations 126
Cbc0038I Pass  11: suminf.   16.56775 (111) obj. 23759.4 iterations 85
Cbc0038I Pass  12: suminf.   16.68109 (111) obj. 23500 iterations 59
Cbc0038I Pass  13: suminf.   16.61206 (78) obj. 27032.7 iterations 189
Cbc0038I Pass  14: suminf.   12.90801 (87) obj. 27032.7 iterations 45
Cbc0038I Pass  15: suminf.   12.92916 (84) obj. 26450.9 iterations 26
Cbc0038I Pass  16: suminf.   11.97942 (71) obj. 27032.7 iterations 85
Cbc0038I Pass  17: suminf.   14.35383 (74) obj. 27032.7 iterations 31
Cbc0038I Pass  18: suminf.    4.40781 (47) obj. 27032.7 iterations 334
Cbc0038I Pass  19: suminf.    2.83623 (33) obj. 27032.7 iterations 65
Cbc0038I Pass  20: suminf.    4.70857 (26) obj. 27032.7 iterations 63
Cbc0038I Pass  21: suminf.    3.11028 (26) obj. 27032.7 iterations 30
Cbc0038I Pass  22: suminf.    1.54699 (21) obj. 27032.7 iterations 84
Cbc0038I Pass  23: suminf.    1.54585 (16) obj. 27032.7 iterations 16
Cbc0038I Pass  24: suminf.    3.80748 (19) obj. 27032.7 iterations 141
Cbc0038I Pass  25: suminf.    3.21892 (20) obj. 27032.7 iterations 64
Cbc0038I Pass  26: suminf.    2.96629 (21) obj. 27032.7 iterations 145
Cbc0038I Pass  27: suminf.    2.56357 (21) obj. 27032.7 iterations 54
Cbc0038I Pass  28: suminf.    2.47463 (20) obj. 27032.7 iterations 4
Cbc0038I Pass  29: suminf.    3.32128 (20) obj. 27032.7 iterations 72
Cbc0038I Pass  30: suminf.   25.22918 (128) obj. 27032.7 iterations 330
Cbc0038I Pass  31: suminf.   16.38558 (85) obj. 27032.7 iterations 166
Cbc0038I Pass  32: suminf.   15.02368 (83) obj. 27032.7 iterations 64
Cbc0038I Pass  33: suminf.   14.30720 (83) obj. 27032.7 iterations 41
Cbc0038I Pass  34: suminf.    8.50427 (65) obj. 27032.7 iterations 144
Cbc0038I Pass  35: suminf.    8.80099 (66) obj. 27032.7 iterations 5
Cbc0038I Pass  36: suminf.    7.71311 (40) obj. 27032.7 iterations 186
Cbc0038I Pass  37: suminf.    6.50121 (34) obj. 27032.7 iterations 72
Cbc0038I Pass  38: suminf.    5.24149 (31) obj. 27032.7 iterations 39
Cbc0038I Pass  39: suminf.    6.16827 (23) obj. 27032.7 iterations 89
Cbc0038I Pass  40: suminf.    4.42656 (17) obj. 27032.7 iterations 74
Cbc0038I Pass  41: suminf.    3.34619 (25) obj. 27032.7 iterations 122
Cbc0038I Pass  42: suminf.    2.78422 (21) obj. 27032.7 iterations 68
Cbc0038I Pass  43: suminf.    6.22823 (31) obj. 27032.7 iterations 92
Cbc0038I Pass  44: suminf.    4.44241 (30) obj. 27032.7 iterations 91
Cbc0038I Pass  45: suminf.    3.40869 (28) obj. 27032.7 iterations 12
Cbc0038I Pass  46: suminf.    4.81348 (19) obj. 25599.7 iterations 137
Cbc0038I Pass  47: suminf.    3.83397 (13) obj. 25596.1 iterations 38
Cbc0038I Pass  48: suminf.    2.77715 (31) obj. 27032.7 iterations 118
Cbc0038I Pass  49: suminf.    8.55294 (40) obj. 27032.7 iterations 167
Cbc0038I Pass  50: suminf.    6.68244 (37) obj. 27032.7 iterations 29
Cbc0038I Pass  51: suminf.    6.36047 (37) obj. 27032.7 iterations 85
Cbc0038I Pass  52: suminf.    2.77070 (25) obj. 27032.7 iterations 17
Cbc0038I Pass  53: suminf.    3.26999 (28) obj. 27032.7 iterations 65
Cbc0038I Pass  54: suminf.    1.87086 (28) obj. 27032.7 iterations 6
Cbc0038I Pass  55: suminf.    5.01119 (28) obj. 27032.7 iterations 52
Cbc0038I Pass  56: suminf.    3.00623 (27) obj. 27032.7 iterations 14
Cbc0038I Pass  57: suminf.   24.87220 (118) obj. 27032.7 iterations 226
Cbc0038I Pass  58: suminf.   19.19032 (96) obj. 27032.7 iterations 126
Cbc0038I Pass  59: suminf.   19.10868 (92) obj. 27032.7 iterations 22
Cbc0038I Pass  60: suminf.   18.84707 (91) obj. 27032.7 iterations 9
Cbc0038I Pass  61: suminf.    6.79704 (53) obj. 27032.7 iterations 159
Cbc0038I Pass  62: suminf.    6.79704 (53) obj. 27032.7 iterations 27
Cbc0038I Pass  63: suminf.    8.56956 (51) obj. 27032.7 iterations 110
Cbc0038I Pass  64: suminf.    5.53677 (45) obj. 27032.7 iterations 21
Cbc0038I Pass  65: suminf.    4.70281 (31) obj. 27032.7 iterations 40
Cbc0038I Pass  66: suminf.    4.81669 (33) obj. 27032.7 iterations 20
Cbc0038I Pass  67: suminf.    4.44302 (18) obj. 27032.7 iterations 284
Cbc0038I Pass  68: suminf.    2.02169 (13) obj. 27032.7 iterations 73
Cbc0038I Pass  69: suminf.    3.83397 (13) obj. 25596.1 iterations 60
Cbc0038I Pass  70: suminf.    2.86520 (24) obj. 27032.7 iterations 99
Cbc0038I Pass  71: suminf.    6.49933 (31) obj. 27032.7 iterations 113
Cbc0038I Pass  72: suminf.    4.85231 (26) obj. 27032.7 iterations 48
Cbc0038I Pass  73: suminf.    3.79229 (21) obj. 27032.7 iterations 20
Cbc0038I Pass  74: suminf.    5.22911 (15) obj. 27032.7 iterations 91
Cbc0038I Pass  75: suminf.    2.00598 (16) obj. 27032.7 iterations 24
Cbc0038I Pass  76: suminf.    2.00598 (16) obj. 27032.7 iterations 19
Cbc0038I Pass  77: suminf.    3.24271 (30) obj. 27032.7 iterations 117
Cbc0038I Pass  78: suminf.    2.77232 (30) obj. 27032.7 iterations 32
Cbc0038I Pass  79: suminf.    9.37808 (46) obj. 27032.7 iterations 214
Cbc0038I Pass  80: suminf.    8.01413 (34) obj. 27032.7 iterations 31
Cbc0038I Pass  81: suminf.    4.97934 (30) obj. 27032.7 iterations 39
Cbc0038I Pass  82: suminf.    4.30743 (36) obj. 27032.7 iterations 76
Cbc0038I Pass  83: suminf.    4.81662 (23) obj. 25600 iterations 151
Cbc0038I Pass  84: suminf.    1.97369 (20) obj. 27032.7 iterations 32
Cbc0038I Pass  85: suminf.    3.58657 (22) obj. 27032.7 iterations 93
Cbc0038I Pass  86: suminf.    3.12020 (22) obj. 27032.7 iterations 38
Cbc0038I Pass  87: suminf.    4.84163 (25) obj. 25600 iterations 88
Cbc0038I Pass  88: suminf.    2.98021 (24) obj. 27032.7 iterations 97
Cbc0038I Pass  89: suminf.    2.83522 (22) obj. 27032.7 iterations 2
Cbc0038I Pass  90: suminf.    3.83397 (13) obj. 25596.1 iterations 74
Cbc0038I Pass  91: suminf.    3.83397 (13) obj. 25596.1 iterations 2
Cbc0038I Pass  92: suminf.    2.86441 (25) obj. 27032.7 iterations 117
Cbc0038I Pass  93: suminf.    8.37172 (37) obj. 27032.7 iterations 127
Cbc0038I Pass  94: suminf.    5.88060 (37) obj. 27032.7 iterations 13
Cbc0038I Pass  95: suminf.    4.92416 (26) obj. 26934.7 iterations 81
Cbc0038I Pass  96: suminf.    4.20032 (28) obj. 27032.7 iterations 31
Cbc0038I Pass  97: suminf.    3.91333 (28) obj. 27032.7 iterations 90
Cbc0038I Pass  98: suminf.    2.20819 (28) obj. 27032.7 iterations 8
Cbc0038I Pass  99: suminf.    6.47351 (26) obj. 27032.7 iterations 57
Cbc0038I Pass 100: suminf.    3.12146 (17) obj. 27032.7 iterations 26
Cbc0038I Pass 101: suminf.    1.65189 (10) obj. 27032.7 iterations 55
Cbc0038I Pass 102: suminf.    1.57678 (12) obj. 27032.7 iterations 29
Cbc0038I Pass 103: suminf.    3.24271 (30) obj. 27032.7 iterations 106
Cbc0038I Pass 104: suminf.    2.77232 (30) obj. 27032.7 iterations 34
Cbc0038I Pass 105: suminf.    8.42921 (43) obj. 27032.7 iterations 165
Cbc0038I Pass 106: suminf.    5.10104 (35) obj. 27032.7 iterations 61
Cbc0038I Pass 107: suminf.    5.10718 (37) obj. 27032.7 iterations 29
Cbc0038I Pass 108: suminf.   27.56596 (117) obj. 27032.7 iterations 229
Cbc0038I No solution found this major pass
Cbc0038I Before mini branch and bound, 59 integers at bound fixed and 0 continuous
Cbc0038I Mini branch and bound did not improve solution (0.69 seconds)
Cbc0038I After 0.69 seconds - Feasibility pump exiting with objective of 27648 - took 0.63 seconds
Cbc0012I Integer solution of 27648 found by feasibility pump after 0 iterations and 0 nodes (0.69 seconds)
Cbc0031I 48 added rows had average density of 83.333333
Cbc0013I At root node, 48 cuts changed objective from 21504 to 21504 in 100 passes
Cbc0014I Cut generator 0 (Probing) - 229 row cuts average 2.9 elements, 6 column cuts (6 active)  in 0.259 seconds - new frequency is -100
Cbc0014I Cut generator 1 (Gomory) - 2758 row cuts average 352.1 elements, 0 column cuts (0 active)  in 1.052 seconds - new frequency is -100
Cbc0014I Cut generator 2 (Knapsack) - 1 row cuts average 3.0 elements, 0 column cuts (0 active)  in 0.043 seconds - new frequency is -100
Cbc0014I Cut generator 3 (Clique) - 0 row cuts average 0.0 elements, 0 column cuts (0 active)  in 0.023 seconds - new frequency is -100
Cbc0014I Cut generator 4 (MixedIntegerRounding2) - 0 row cuts average 0.0 elements, 0 column cuts (0 active)  in 0.064 seconds - new frequency is -100
Cbc0014I Cut generator 5 (FlowCover) - 0 row cuts average 0.0 elements, 0 column cuts (0 active)  in 0.060 seconds - new frequency is -100
Cbc0014I Cut generator 6 (TwoMirCuts) - 325 row cuts average 181.2 elements, 0 column cuts (0 active)  in 0.320 seconds - new frequency is -100
Cbc0014I Cut generator 7 (ZeroHalf) - 49 row cuts average 10.5 elements, 0 column cuts (0 active)  in 0.497 seconds - new frequency is -100
Cbc0010I After 0 nodes, 1 on tree, 27648 best solution, best possible 21504 (12.50 seconds)
Cbc0010I After 1000 nodes, 6 on tree, 27648 best solution, best possible 21692 (42.17 seconds)
Cbc0010I After 2000 nodes, 5 on tree, 27648 best solution, best possible 21704 (70.33 seconds)
Cbc0010I After 3000 nodes, 5 on tree, 27648 best solution, best possible 21704 (102.94 seconds)
Cbc0010I After 4000 nodes, 5 on tree, 27648 best solution, best possible 21704 (136.05 seconds)
Cbc0010I After 5000 nodes, 6 on tree, 27648 best solution, best possible 21704 (169.16 seconds)
Cbc0010I After 6000 nodes, 5 on tree, 27648 best solution, best possible 21728 (198.87 seconds)
Cbc0010I After 7000 nodes, 4 on tree, 27648 best solution, best possible 21728 (227.50 seconds)
Cbc0010I After 8000 nodes, 5 on tree, 27648 best solution, best possible 21728 (258.79 seconds)
Cbc0010I After 9000 nodes, 5 on tree, 27648 best solution, best possible 21728 (285.66 seconds)
Cbc0004I Integer solution of 24576 found after 2917219 iterations and 9992 nodes (314.51 seconds)
Cbc0001I Search completed - best objective 24576, took 2917707 iterations and 9996 nodes (314.62 seconds)
Cbc0032I Strong branching done 23438 times (958635 iterations), fathomed 3249 nodes and fixed 3742 variables
Cbc0035I Maximum depth 3085, 3 variables fixed on reduced cost
Cuts at root node changed objective from 21504 to 21504
Probing was tried 100 times and created 235 cuts of which 0 were active after adding rounds of cuts (0.259 seconds)
Gomory was tried 100 times and created 2758 cuts of which 0 were active after adding rounds of cuts (1.052 seconds)
Knapsack was tried 100 times and created 1 cuts of which 0 were active after adding rounds of cuts (0.043 seconds)
Clique was tried 100 times and created 0 cuts of which 0 were active after adding rounds of cuts (0.023 seconds)
MixedIntegerRounding2 was tried 100 times and created 0 cuts of which 0 were active after adding rounds of cuts (0.064 seconds)
FlowCover was tried 100 times and created 0 cuts of which 0 were active after adding rounds of cuts (0.060 seconds)
TwoMirCuts was tried 100 times and created 325 cuts of which 0 were active after adding rounds of cuts (0.320 seconds)
ZeroHalf was tried 100 times and created 49 cuts of which 0 were active after adding rounds of cuts (0.497 seconds)

Result - Optimal solution found

Objective value:                24576.00000000
Enumerated nodes:               9996
Total iterations:               2917707
Time (CPU seconds):             314.69
Time (Wallclock seconds):       315.17

Total time (CPU seconds):       314.69   (Wallclock seconds):       315.18

